%%% static parameters %%%
timespan = 1;
Fact = [2];
Distr1 = [5];
Distr2 = [10];
Clients_N = [100];
Demand_W = [15];
Lt0 = [4];
Lt1 = [4];
SS_ = [0.85];
DS_D = [8];
K = [200];
MA = [500];
%%% dynamic parameters %%%
lost_ratio_sales_ret_th = 0.7009082497486231;
lost_ratio_sales_ret_w = 100;
lost_ratio_sales_dis_th = 0.7516272230797656;
lost_ratio_sales_dis_w = 58;
lost_ratio_sales_fac_th = 0.6892510168561501;
lost_ratio_sales_fac_w = 50;
stock_customer_MA_mean_relative_th = 0.611069742804375;
stock_customer_MA_mean_relative_w = 96;
stock_distributor_MA_mean_relative_th = 0.902056308052448;
stock_distributor_MA_mean_relative_w = 100;
stock_retailer_MA_mean_relative_th = 0.7352984872730313;
stock_retailer_MA_mean_relative_w = 16;
stock_factory_MA_mean_relative_th = 0.4963875421438917;
stock_factory_MA_mean_relative_w = 29;
